variable	out_freq equal 1000
variable	out_freq2 equal 1000

timestep	0.0005

neigh_modify    delay 5 every 1

include		in.deepmd

thermo          ${out_freq}
thermo_style 	custom step temp pe etotal press pxx pyy pzz lx ly lz vol

restart 	${out_freq} restart.lmp restart2.lmp

