echo both

log             log.lammps append
include         in.temp
include         in.pressure
include         in.seed
units           metal
atom_style      atomic
include         in.box
include         in.setup

include         in.dump

timer           timeout 01:55:00 every 10

minimize        1.e-6 1.e-8 100 10000

write_data      data.final.min

fix             1 all box/relax iso 0.0
minimize        1.e-6 1.e-8 100 10000
unfix           1

write_data      data.final.minbox

timestep        0.00025
fix             1 all nve
velocity        all create 100 ${seed} dist gaussian
run             2000
unfix           1

write_data      data.final.nve

timestep        0.0005
fix             1 all nve
fix             2 all temp/csvr ${temperature} ${temperature} ${tempDamp} ${seed}
velocity        all create ${temperature} ${seed} dist gaussian
run             2000
unfix           1
unfix           2

write_data      data.final.nvt

timestep        0.001
fix             1 all nph iso ${pressure} ${pressure} ${pressureDamp}
fix             2 all temp/csvr ${temperature} ${temperature} ${tempDamp} ${seed}

run             10000 # 5 ps

write_data      data.final

