
log             log.lammps append
include		in.temp
include		in.pressure
include		in.seed
units		metal
atom_style	atomic
read_restart    restart.lmp
include         in.setup
include         in.dump

timer           timeout 00:10:00 every 100

fix             1 all nph iso ${pressure} ${pressure} ${pressureDamp}
fix             2 all temp/csvr ${temperature} ${temperature} ${tempDamp} ${seed}

run             1 

write_data	data.final

write_restart   restart.lmp
