
log             log.lammps append
include		in.temp
include		in.pressure
include		in.seed
units		metal
atom_style	atomic
read_restart    restart.lmp
include         in.setup
include         in.dump

timer           timeout 23:30:00 every 1000

fix             1 all nph iso ${pressure} ${pressure} ${pressureDamp}
fix             2 all temp/csvr ${temperature} ${temperature} ${tempDamp} ${seed}
fix             3 all momentum 10000 linear 1 1 1 rescale

run             20000000 upto # 10 ns

write_data	data.final

write_restart   restart.lmp
