echo both

include		in.partitions
log             log.lammps.${pid} append
include		in.temp
include		in.pressure
include		in.seed
units		metal
atom_style	atomic
include		in.box
include 	in.setup

include         in.dump

timer           timeout 71:30:00 every 1000

fix             1 all plumed plumedfile plumed.start.dat outfile plumed.out
fix             2 all nph x ${pressure} ${pressure} ${pressureDamp}
fix             3 all temp/csvr ${temperature} ${temperature} ${tempDamp} ${seed}
fix             4 all momentum 10000 linear 1 1 1
velocity 	all create ${temperature} ${seed} dist gaussian

run             100000000 upto

unfix		1
unfix		2
unfix		3

write_data	data.final.${pid}
write_restart   restart.lmp.${pid}
