echo both

include         in.partitions
log             log.lammps.${pid} append
include         in.temp
include         in.pressure
include         in.seed
units           metal
atom_style      atomic
read_restart    restart.lmp.${pid}
include         in.setup
include         in.dump

timer           timeout 11:50:00 every 500

fix             1 all nph iso ${pressure} ${pressure} ${pressureDamp}
fix             2 all temp/csvr ${temperature} ${temperature} ${tempDamp} ${seed}
fix             3 all momentum 10000 linear 1 1 1 rescale

run             40000000 upto # 20 ns

write_data      data.final.${pid}

write_restart   restart.lmp.${pid}
