echo both

include		in.temp
include		in.pressure
include		in.seed
units		metal
atom_style	atomic
include		in.box
include 	in.setup

include         in.dump

timer           timeout 23:50:00 every 1000

#fix             1 all plumed plumedfile plumed.start.dat outfile plumed.out
fix             2 all nph iso ${pressure} ${pressure} ${pressureDamp}
fix             3 all temp/csvr ${temperature} ${temperature} ${tempDamp} ${seed}
velocity 	all create ${temperature} ${seed} dist gaussian

run             200000 upto

write_data	data.final

write_restart   restart.lmp
